  4	34
 18
  0	 25	  2	 27	 11	 59	 45	 36	  4	 61	 23	 28	 57	 21	 62	 55	 38	 69	
 14
  0	  9	 29	  1	 63	 20	 35	 43	 54	 18	 24	 52	 58	 69	
 22
  0	  8	  6	 40	 32	 42	 66	 14	 30	 64	 48	 12	  3	 46	  7	 17	 13	 37	 47	 51	 41	 69	
 22
  0	 15	 26	 49	 16	  5	 60	 50	 39	 10	 31	 19	 44	 65	 33	 53	 34	 68	 67	 22	 56	 69	
